c read Graph
c width = 17
c time = 497 ms
c width = 5
c time = 609 ms
c width = 5
c time = 4217 ms
s td 26 6 30
b 1 1 2 7
b 2 2 3 7 8
b 3 4 5 11 12
b 4 3 7 8 13
b 5 4 11 12 18
b 6 13 19 20 26
b 7 18 23 24 29
b 8 13 20 26 27
b 9 18 23 28 29
b 10 3 8 9 13 14
b 11 3 4 9 13 14
b 12 4 10 11 17 18
b 13 13 14 20 21 27
b 14 17 18 22 23 28
b 15 13 14 21 27 28
b 16 4 9 13 14 21 28
b 17 4 9 14 15 21 28
b 18 4 9 10 15 21 28
b 19 4 10 17 18 22 28
b 20 4 10 15 21 22 28
b 21 4 10 15 17 22 28
b 22 10 15 16 17 22
b 23 10 15 17 22 28
b 24 24 29 30
b 25 19 25 26
b 26 5 6 12
1 2
2 4
3 26
3 5
4 10
5 12
6 25
6 8
7 24
7 9
8 13
9 14
10 11
11 16
12 19
13 15
14 19
15 16
16 17
17 18
18 20
19 21
20 21
21 23
22 23
